
Gurobi 9.0.2 (mac64, Python) logging started Sun Dec 11 19:05:19 2022

Using license file /Users/muratilter/gurobi.lic
Set parameter LogFile to value best-diff-new-future-3.log
Academic license - for non-commercial use only
Read LP format model from file new_best_diff_future_3.lp
Reading time = 0.04 seconds
: 10548 rows, 656 columns, 77984 nonzeros
Gurobi Optimizer version 9.0.2 build v9.0.2rc0 (mac64)
Optimize a model with 10548 rows, 656 columns and 77984 nonzeros
Model fingerprint: 0x136266a3
Variable types: 0 continuous, 656 integer (656 binary)
Coefficient statistics:
  Matrix range     [1e+00, 2e+01]
  Objective range  [2e+00, 4e+00]
  Bounds range     [1e+00, 1e+00]
  RHS range        [1e+00, 8e+00]
Presolve removed 128 rows and 128 columns
Presolve time: 0.08s
Presolved: 10420 rows, 528 columns, 77728 nonzeros
Variable types: 0 continuous, 528 integer (528 binary)

Root relaxation: objective 3.945497e+00, 5316 iterations, 0.25 seconds

    Nodes    |    Current Node    |     Objective Bounds      |     Work
 Expl Unexpl |  Obj  Depth IntInf | Incumbent    BestBd   Gap | It/Node Time

     0     0    3.94550    0  395          -    3.94550      -     -    0s
H    0     0                      26.0000000    3.94550  84.8%     -    0s
H    0     0                      24.0000000    3.94550  83.6%     -    1s
H    0     0                      22.0000000    3.94550  82.1%     -    1s
     0     0    4.51568    0  261   22.00000    4.51568  79.5%     -    1s
     0     0    4.58054    0  308   22.00000    4.58054  79.2%     -    1s
     0     0    4.83079    0  227   22.00000    4.83079  78.0%     -    1s
     0     0    4.83662    0  279   22.00000    4.83662  78.0%     -    1s
     0     0    5.11682    0  269   22.00000    5.11682  76.7%     -    2s
     0     0    6.21694    0  275   22.00000    6.21694  71.7%     -    2s
     0     0    6.24685    0  274   22.00000    6.24685  71.6%     -    2s
     0     0    6.24884    0  275   22.00000    6.24884  71.6%     -    2s
     0     0    6.24892    0  272   22.00000    6.24892  71.6%     -    2s
     0     0    7.02375    0  235   22.00000    7.02375  68.1%     -    3s
     0     0    7.30763    0  243   22.00000    7.30763  66.8%     -    3s
     0     0    7.39164    0  166   22.00000    7.39164  66.4%     -    3s
     0     0    7.40064    0  208   22.00000    7.40064  66.4%     -    3s
     0     0    7.40114    0  195   22.00000    7.40114  66.4%     -    3s
     0     0    8.06949    0  244   22.00000    8.06949  63.3%     -    3s
     0     0    8.09474    0  253   22.00000    8.09474  63.2%     -    3s
     0     0    8.09658    0  259   22.00000    8.09658  63.2%     -    3s
     0     0    8.09705    0  254   22.00000    8.09705  63.2%     -    3s
     0     0    8.67973    0  208   22.00000    8.67973  60.5%     -    4s
     0     0    8.75488    0  178   22.00000    8.75488  60.2%     -    4s
     0     0    8.76639    0  259   22.00000    8.76639  60.2%     -    4s
     0     0    8.76892    0  256   22.00000    8.76892  60.1%     -    4s
     0     0    8.76896    0  197   22.00000    8.76896  60.1%     -    4s
     0     0    8.94611    0  283   22.00000    8.94611  59.3%     -    4s
     0     0    8.95370    0  293   22.00000    8.95370  59.3%     -    4s
     0     0    8.95616    0  269   22.00000    8.95616  59.3%     -    4s
     0     0   10.00637    0  260   22.00000   10.00637  54.5%     -    5s
     0     0   10.09094    0  235   22.00000   10.09094  54.1%     -    5s
     0     0   10.10369    0  272   22.00000   10.10369  54.1%     -    5s
     0     0   10.10480    0  277   22.00000   10.10480  54.1%     -    5s
     0     0   10.10526    0  279   22.00000   10.10526  54.1%     -    5s
     0     0   13.44700    0  245   22.00000   13.44700  38.9%     -    5s
     0     0   13.46199    0  285   22.00000   13.46199  38.8%     -    5s
     0     0   13.47080    0  325   22.00000   13.47080  38.8%     -    5s
     0     0   13.47503    0  331   22.00000   13.47503  38.7%     -    5s
     0     0   13.47555    0  332   22.00000   13.47555  38.7%     -    5s
     0     0   13.53739    0  350   22.00000   13.53739  38.5%     -    6s
     0     0   13.54196    0  351   22.00000   13.54196  38.4%     -    6s
     0     0   13.54302    0  338   22.00000   13.54302  38.4%     -    6s
     0     0   13.73938    0  226   22.00000   13.73938  37.5%     -    6s
     0     0   13.74919    0  171   22.00000   13.74919  37.5%     -    6s
     0     0   13.77868    0  164   22.00000   13.77868  37.4%     -    6s
     0     0   13.78085    0  165   22.00000   13.78085  37.4%     -    6s
     0     0   13.78085    0  165   22.00000   13.78085  37.4%     -    6s
     0     0   13.80265    0  176   22.00000   13.80265  37.3%     -    6s
     0     0   13.80265    0  162   22.00000   13.80265  37.3%     -    6s
     0     0   13.80772    0  157   22.00000   13.80772  37.2%     -    7s
     0     0   13.81038    0  164   22.00000   13.81038  37.2%     -    7s
     0     0   13.81153    0  173   22.00000   13.81153  37.2%     -    7s
     0     0   13.84316    0  227   22.00000   13.84316  37.1%     -    7s
     0     0   13.84500    0  221   22.00000   13.84500  37.1%     -    7s
     0     0   13.84514    0  294   22.00000   13.84514  37.1%     -    7s
     0     0   13.88019    0  264   22.00000   13.88019  36.9%     -    7s
     0     0   13.88805    0  311   22.00000   13.88805  36.9%     -    8s
     0     0   13.88805    0  300   22.00000   13.88805  36.9%     -    8s
     0     0   13.88854    0  268   22.00000   13.88854  36.9%     -    8s
     0     0   13.88865    0  270   22.00000   13.88865  36.9%     -    8s
     0     0   13.89021    0  220   22.00000   13.89021  36.9%     -    8s
     0     0   13.92473    0  325   22.00000   13.92473  36.7%     -    8s
     0     0   13.94149    0  321   22.00000   13.94149  36.6%     -    8s
     0     0   13.94843    0  331   22.00000   13.94843  36.6%     -    8s
     0     0   13.95267    0  330   22.00000   13.95267  36.6%     -    8s
     0     0   13.95268    0  329   22.00000   13.95268  36.6%     -    8s
     0     0   14.16662    0  351   22.00000   14.16662  35.6%     -    9s
     0     0   14.20162    0  332   22.00000   14.20162  35.4%     -    9s
     0     0   14.20637    0  328   22.00000   14.20637  35.4%     -    9s
     0     0   14.20909    0  339   22.00000   14.20909  35.4%     -    9s
     0     0   14.20925    0  346   22.00000   14.20925  35.4%     -    9s
     0     0   14.22017    0  353   22.00000   14.22017  35.4%     -    9s
     0     0   14.26591    0  338   22.00000   14.26591  35.2%     -    9s
     0     0   14.27800    0  335   22.00000   14.27800  35.1%     -    9s
     0     0   14.27896    0  353   22.00000   14.27896  35.1%     -   10s
     0     0   15.07481    0  290   22.00000   15.07481  31.5%     -   10s
H    0     0                      18.0000000   15.07481  16.3%     -   10s
     0     0   15.07650    0  244   18.00000   15.07650  16.2%     -   10s
     0     0   15.07784    0  242   18.00000   15.07784  16.2%     -   10s
     0     0     cutoff    0        18.00000   18.00000  0.00%     -   10s

Cutting planes:
  Cover: 91
  MIR: 88
  StrongCG: 4
  Zero half: 9
  RLT: 4

Explored 1 nodes (17709 simplex iterations) in 10.74 seconds
Thread count was 8 (of 8 available processors)

Solution count 4: 18 22 24 26 

Optimal solution found (tolerance 1.00e-04)
Best objective 1.800000000000e+01, best bound 1.800000000000e+01, gap 0.0000%
